unknown
(model
; cardinality of BoundSet is 3
(declare-sort BoundSet 0)
; rep: @uc_BoundSet_0
; rep: @uc_BoundSet_1
; rep: @uc_BoundSet_2
; cardinality of UnboundSet is 1
(declare-sort UnboundSet 0)
(declare-fun groundTerm_4 () UnboundSet)
(define-fun WereCooler ((BOUND_VARIABLE_433 BoundSet) (BOUND_VARIABLE_434 BoundSet)) Bool true)
(define-fun Thought ((BOUND_VARIABLE_433 BoundSet) (BOUND_VARIABLE_434 BoundSet)) Bool true)
(define-fun IsGlobalWarming ((BOUND_VARIABLE_443 BoundSet)) Bool false)
(define-fun Undergoing ((BOUND_VARIABLE_433 BoundSet) (BOUND_VARIABLE_434 BoundSet)) Bool false)
(define-fun IsUnparalleled ((BOUND_VARIABLE_433 BoundSet) (BOUND_VARIABLE_434 BoundSet)) Bool false)
(define-fun IsWorse ((BOUND_VARIABLE_443 BoundSet)) Bool false)
)
sat
(model
; cardinality of BoundSet is 1
(declare-sort BoundSet 0)
; rep: @uc_BoundSet_0
; cardinality of UnboundSet is 1
(declare-sort UnboundSet 0)
(declare-fun groundTerm_6 () UnboundSet)
(define-fun WereCooler ((BOUND_VARIABLE_501 BoundSet) (BOUND_VARIABLE_502 BoundSet)) Bool true)
(define-fun Thought ((BOUND_VARIABLE_501 BoundSet) (BOUND_VARIABLE_502 BoundSet)) Bool true)
(define-fun IsGlobalWarming ((BOUND_VARIABLE_508 BoundSet)) Bool false)
(define-fun Undergoing ((BOUND_VARIABLE_501 BoundSet) (BOUND_VARIABLE_502 BoundSet)) Bool true)
(define-fun IsUnparalleled ((BOUND_VARIABLE_501 BoundSet) (BOUND_VARIABLE_502 BoundSet)) Bool true)
(define-fun IsWorse ((BOUND_VARIABLE_508 BoundSet)) Bool true)
)
